NAME : CMT7Y.901221.tour
COMMENT : Cost = 0_901221
COMMENT : Found by LKH [Keld Helsgaun] Thu Sep 14 19:15:21 2017
TYPE : TOUR
DIMENSION : 86
TOUR_SECTION
1
7
34
44
42
57
24
64
77
63
23
65
43
2
74
80
10
26
56
19
51
33
78
37
72
61
71
21
38
83
13
73
40
32
11
59
81
5
46
30
6
48
49
31
76
79
75
22
70
62
29
3
69
86
18
41
45
4
25
50
17
52
85
47
9
20
60
15
36
68
84
27
39
66
67
12
54
8
82
28
16
58
14
55
53
35
-1
EOF
